Instance: E101-08e.dat
Class:  3
  100 --- number of customers (no depot)
   21 --- number of vehicles
  212 --- number of items
Capacity - height - width of vehicles
   200     40     20
Node - x - y - demand
    0    35.0    35.0     0.0
    1    41.0    49.0    10.0
    2    35.0    17.0     7.0
    3    55.0    45.0    13.0
    4    55.0    20.0    19.0
    5    15.0    30.0    26.0
    6    25.0    30.0     3.0
    7    20.0    50.0     5.0
    8    10.0    43.0     9.0
    9    55.0    60.0    16.0
   10    30.0    60.0    16.0
   11    20.0    65.0    12.0
   12    50.0    35.0    19.0
   13    30.0    25.0    23.0
   14    15.0    10.0    20.0
   15    30.0     5.0     8.0
   16    10.0    20.0    19.0
   17     5.0    30.0     2.0
   18    20.0    40.0    12.0
   19    15.0    60.0    17.0
   20    45.0    65.0     9.0
   21    45.0    20.0    11.0
   22    45.0    10.0    18.0
   23    55.0     5.0    29.0
   24    65.0    35.0     3.0
   25    65.0    20.0     6.0
   26    45.0    30.0    17.0
   27    35.0    40.0    16.0
   28    41.0    37.0    16.0
   29    64.0    42.0     9.0
   30    40.0    60.0    21.0
   31    31.0    52.0    27.0
   32    35.0    69.0    23.0
   33    53.0    52.0    11.0
   34    65.0    55.0    14.0
   35    63.0    65.0     8.0
   36     2.0    60.0     5.0
   37    20.0    20.0     8.0
   38     5.0     5.0    16.0
   39    60.0    12.0    31.0
   40    40.0    25.0     9.0
   41    42.0     7.0     5.0
   42    24.0    12.0     5.0
   43    23.0     3.0     7.0
   44    11.0    14.0    18.0
   45     6.0    38.0    16.0
   46     2.0    48.0     1.0
   47     8.0    56.0    27.0
   48    13.0    52.0    36.0
   49     6.0    68.0    30.0
   50    47.0    47.0    13.0
   51    49.0    58.0    10.0
   52    27.0    43.0     9.0
   53    37.0    31.0    14.0
   54    57.0    29.0    18.0
   55    63.0    23.0     2.0
   56    53.0    12.0     6.0
   57    32.0    12.0     7.0
   58    36.0    26.0    18.0
   59    21.0    24.0    28.0
   60    17.0    34.0     3.0
   61    12.0    24.0    13.0
   62    24.0    58.0    19.0
   63    27.0    69.0    10.0
   64    15.0    77.0     9.0
   65    62.0    77.0    20.0
   66    49.0    73.0    25.0
   67    67.0     5.0    25.0
   68    56.0    39.0    36.0
   69    37.0    47.0     6.0
   70    37.0    56.0     5.0
   71    57.0    68.0    15.0
   72    47.0    16.0    25.0
   73    44.0    17.0     9.0
   74    46.0    13.0     8.0
   75    49.0    11.0    18.0
   76    49.0    42.0    13.0
   77    53.0    43.0    14.0
   78    61.0    52.0     3.0
   79    57.0    48.0    23.0
   80    56.0    37.0     6.0
   81    55.0    54.0    26.0
   82    15.0    47.0    16.0
   83    14.0    37.0    11.0
   84    11.0    31.0     7.0
   85    16.0    22.0    41.0
   86     4.0    18.0    35.0
   87    28.0    18.0    26.0
   88    26.0    52.0     9.0
   89    26.0    35.0    15.0
   90    31.0    67.0     3.0
   91    15.0    19.0     1.0
   92    22.0    22.0     2.0
   93    18.0    24.0    22.0
   94    26.0    27.0    27.0
   95    25.0    24.0    20.0
   96    22.0    27.0    11.0
   97    25.0    21.0    12.0
   98    19.0    21.0    10.0
   99    20.0    26.0     9.0
  100    18.0    18.0    17.0
Node - number of items - h - w for each item
    0   0
    1   3   11    7    9    5   18    4
    2   3   14    8   19    4   16    3
    3   1    9    4
    4   3    7    9   10    6   16    5
    5   1   14    3
    6   3    5   16    5   11   12    5
    7   2   14    5   16    3
    8   2    4    6   13    3
    9   2   11    8   16    5
   10   1   29    4
   11   2   15    4   28    3
   12   1   25    2
   13   3    5   12   12    7    4    7
   14   2   12    5   10    5
   15   2    8   14   28    3
   16   2    6   11   19    2
   17   1    4    7
   18   2    4   15   10    5
   19   2   12    5   10    4
   20   2    6   11    8    5
   21   2   12    6    5    6
   22   1    6   13
   23   1   13    5
   24   3   24    3   31    2   26    2
   25   2   14    7    9    7
   26   1   10    8
   27   3    5   14   22    4   15    3
   28   2    7   15   21    3
   29   2   13    7   11    6
   30   3    7   12    9    7   27    2
   31   1    6   12
   32   1    5   13
   33   1    4    7
   34   3    6   14   15    8   10    6
   35   3    6   12   10    6   13    3
   36   3    6   11   12    6   23    3
   37   3    7   12    7   11   24    4
   38   3    7   12    6    7   11    5
   39   1    6    6
   40   3    5   15    5   12   24    3
   41   2    6   15    6    9
   42   3    4   10    6    9    7    8
   43   3    4   15   29    4   19    3
   44   3    5   10    4    8   18    4
   45   1    9    8
   46   3   15    6   18    3   22    2
   47   2   15    6   12    6
   48   3    7    9    4    8   24    3
   49   1    6    7
   50   3    5   16   14    8   30    2
   51   2   15    8    9    6
   52   3   15    8    9    7   16    4
   53   3   13    6   21    2   14    2
   54   1    8   10
   55   3   13    5   15    4   20    3
   56   2    6   11   25    4
   57   2    5   12    6   10
   58   2    8   14   12    6
   59   3   12    7   11    4   30    3
   60   1   14    7
   61   1    5   14
   62   2    4   16    9    6
   63   1   16    4
   64   3    4    9   15    6   14    6
   65   2   23    4   19    4
   66   2    7   15   29    3
   67   2   14    5   22    2
   68   3    8   11   12    6   29    3
   69   2   13    6   17    4
   70   2    5   14    9    7
   71   3    6    8   11    4   22    3
   72   1   15    3
   73   2    5   11    9    6
   74   2    5   14   12    4
   75   3    5   14    6    7   31    3
   76   2   16    8   16    3
   77   2    7   11   13    4
   78   1   29    2
   79   1   14    5
   80   3    5    8    9    4   20    2
   81   3    5    8   28    3   26    3
   82   1    9    4
   83   2    8   10   16    4
   84   1    7    9
   85   2   11    6   27    3
   86   3    6   13    8   12   12    4
   87   3   12    6   11    4   17    3
   88   2   13    7   21    3
   89   1   13    7
   90   2    8    6   22    4
   91   2   13    6   22    2
   92   3    5    8    5    7   15    3
   93   2    4   14   14    6
   94   3    9    8   30    4   16    4
   95   3    4    8   16    7   14    5
   96   2    6   13   18    2
   97   2    6   12   11    7
   98   2    6   14   12    8
   99   3    6   16   11    6   13    5
  100   2    7   16   16    3
